(declare-const a Real)
(declare-const b Real)
(declare-const c Real)
(assert (= (* a b c) 1))
(assert (> a 0))
(assert (> b 0))
(assert (> c 0))
(assert (not (<= (+ (* (/ 1 729) (pow (+ (* 4 c) (* 5 b)) 3)) (* (pow a (/ 4 3)) (pow b (/ 5 3))) (* -2 a (pow c 2)) (* -2 b (pow a 2)) (* -2 c (pow b 2)) (* 2 (pow a (/ 5 3)) (pow (* b c) (/ 2 3))) (* 2 (pow a (pow 3 -1)) (pow (* b c) (/ 4 3))) (* 2 (pow b (pow 3 -1)) (pow (* a c) (/ 4 3))) (* 2 (pow c (/ 5 3)) (pow (* a b) (/ 2 3))) (* -6 a b c) (* 2 (pow (* a b) (/ 4 3)) (pow (+ 2 (* (/ 1 3) c)) (/ 7 3)) (pow (+ (* 1 (pow 3 -1)) 2) (/ -7 3)))) 0)))
(check-sat)
(get-model)
(exit)